c Read 624 clauses.  234 variables
c Breaking ties randomly with seed 1
c Placed 624 terms into 110 buckets.
c Bucket 5 Reduced to term with 7 nodes
c Bucket 10 Reduced to term with 7 nodes
c Bucket 15 Reduced to term with 7 nodes
c Bucket 20 Reduced to term with 9 nodes
c Bucket 25 Reduced to term with 7 nodes
c Bucket 30 Reduced to term with 7 nodes
c Bucket 35 Reduced to term with 9 nodes
c Bucket 40 Reduced to term with 11 nodes
c Bucket 45 Reduced to term with 7 nodes
c Bucket 50 Reduced to term with 11 nodes
c Bucket 55 Reduced to term with 9 nodes
c Bucket 60 Reduced to term with 7 nodes
c Bucket 65 Reduced to term with 11 nodes
c Bucket 70 Reduced to term with 7 nodes
c Bucket 75 Reduced to term with 13 nodes
c Bucket 80 Reduced to term with 9 nodes
c Bucket 85 Reduced to term with 17 nodes
c Bucket 90 Reduced to term with 27 nodes
c Bucket 95 Reduced to term with 11 nodes
c Bucket 100 Reduced to term with 13 nodes
c Bucket 105 Reduced to term with 33 nodes
c Bucket 110 Reduced to term with 9 nodes
c Bucket 115 Reduced to term with 13 nodes
c Bucket 120 Reduced to term with 35 nodes
c Bucket 125 Reduced to term with 25 nodes
c Bucket 130 Reduced to term with 29 nodes
c Bucket 135 Reduced to term with 13 nodes
c Bucket 140 Reduced to term with 45 nodes
c Bucket 145 Reduced to term with 11 nodes
s UNSATISFIABLE

c Cache statistics
c ----------------
c Unique Access:  12225
c Unique Chain:   215
c Unique Hit:     2277
c Unique Miss:    9678
c => Hit rate =   0.19
c Operator Hits:  9970
c Operator Miss:  14616
c => Hit rate =   0.41
c Swap count =    0

c BDD statistics
c ----------------
c Total BDD nodes produced: 9678
c Input variables: 234
c Input clauses: 624
c Total clauses: 57513
c Unused+non-BDD clause IDs: 2931 (5.1%)
c Maximum live clauses: 44541
c Deleted clauses: 56889
c Final live clauses: 624
c Total variables: 9910
c Elapsed seconds: 0.042
-rw-r--r--  1 bryant  staff  2263725 Mar 10 23:07 chew-80-123456.lrat
c parsed a formula with 234 variables and 624 clauses
c VERIFIED
c allocated 1024 242866 2340
c Added clauses = 57513.  Deleted clauses = 12972.  Max live clauses = 44541
c verification time = 0.03 secs
